============================[ Problem Statistics ]=============================|                                                                             ||  Number of variables:          4242                                         ||  Number of clauses:           10023                                         ||  Parse time:                   0.42 s                                       ||                                                                             |============================[ Search Statistics ]==============================| Conflicts |          ORIGINAL         |          LEARNT          | Progress ||           |    Vars  Clauses Literals |    Limit  Clauses Lit/Cl |          |===============================================================================|       100 |    1591     6228   656149 |     2283      100     53 | 62.501 % |===============================================================================restarts              : 3conflicts             : 236            (378 /sec)decisions             : 502            (0.00 % random) (803 /sec)propagations          : 11724          (18758 /sec)conflict literals     : 17543          (94.96 % deleted)CPU time              : 0.625 sSATISFIABLE